<number of tasks>
50

<cycle time>
1000

<order strength>
0.898


<task times>
1 662
2 562
3 617
4 537
5 436
6 511
7 478
8 415
9 463
10 648
11 518
12 498
13 620
14 726
15 521
16 713
17 316
18 520
19 631
20 417
21 646
22 530
23 648
24 357
25 315
26 565
27 379
28 340
29 665
30 369
31 513
32 528
33 414
34 453
35 652
36 417
37 482
38 623
39 490
40 354
41 372
42 552
43 241
44 326
45 342
46 702
47 678
48 418
49 703
50 507

<precedence relations>
1,23
1,26
1,29
2,5
2,6
3,5
4,5
4,6
5,7
5,8
5,9
5,10
6,7
6,8
6,9
6,10
7,11
7,12
7,13
8,11
8,12
8,13
9,11
9,12
9,13
10,11
10,12
10,13
11,14
11,15
11,16
11,17
12,14
12,15
12,16
12,17
13,14
13,15
13,16
13,17
14,18
15,18
16,18
17,18
18,19
18,20
19,21
19,22
20,21
20,22
21,23
21,24
21,25
21,26
22,23
22,26
22,29
23,27
23,28
23,30
24,37
25,27
25,28
25,29
25,30
26,36
27,31
28,31
28,32
28,33
29,40
30,32
30,34
31,34
31,35
32,35
33,34
33,35
34,36
34,37
34,38
35,36
35,37
35,38
36,39
36,40
37,39
37,40
38,39
38,40
39,41
40,41
41,42
41,43
41,44
41,45
42,46
42,47
43,46
44,47
46,48
46,49
46,50
47,48

<end>
